100 10
825 280
747 731
807 480
581 850
636 955
166 304
498 390
384 356
557 920
780 386
429 486
162 331
589 431
763 668
696 336
309 319
515 467
763 157
207 554
439 582
821 366
53 506
445 452
625 704
371 504
366 317
706 865
585 247
577 179
679 633
537 216
895 954
85 536
220 444
637 365
519 307
241 389
234 418
613 704
710 238
658 407
583 467
394 304
643 342
734 606
340 382
787 484
28 701
632 484
676 383
113 605
849 940
711 970
513 440
492 557
556 793
181 683
723 365
655 420
236 293
286 472
604 411
365 688
391 714
194 678
355 574
475 844
398 629
859 824
757 415
406 453
511 616
598 286
638 694
161 552
550 535
444 323
983 145
118 491
352 470
215 390
747 603
582 264
465 773
831 148
709 899
310 553
346 306
252 377
989 770
671 333
516 282
760 656
6 415
383 797
577 725
573 635
703 137
590 778
787 255
